NAME: rand_1/map0_180
TYPE: TSP
COMMENT: autogenerated using a wonderful map creator
DIMENSION: 210
EDGE_WEIGHT_TYPE: EUC_2D
NODE_COORD_SECTION
1 10.0 59.0
2 4.0 3.0
3 11.0 59.0
4 12.0 58.0
5 63.0 17.0
6 10.0 60.0
7 1.0 1.0
8 59.0 22.0
9 14.0 62.0
10 57.0 20.0
11 9.0 59.0
12 6.0 6.0
13 12.0 63.0
14 3.0 7.0
15 14.0 59.0
16 15.0 61.0
17 42.0 62.0
18 63.0 21.0
19 58.0 18.0
20 13.0 62.0
21 44.0 57.0
22 43.0 60.0
23 46.0 58.0
24 43.0 57.0
25 47.0 63.0
26 46.0 63.0
27 7.0 4.0
28 2.0 5.0
29 11.0 62.0
30 46.0 57.0
31 62.0 19.0
32 5.0 4.0
33 13.0 60.0
34 45.0 63.0
35 12.0 57.0
36 45.0 61.0
37 43.0 59.0
38 3.0 2.0
39 12.0 62.0
40 42.0 57.0
41 5.0 1.0
42 58.0 19.0
43 44.0 58.0
44 12.0 60.0
45 44.0 59.0
46 59.0 23.0
47 62.0 22.0
48 58.0 23.0
49 57.0 17.0
50 59.0 21.0
51 58.0 16.0
52 42.0 58.0
53 11.0 58.0
54 7.0 7.0
55 60.0 18.0
56 5.0 2.0
57 41.0 61.0
58 41.0 62.0
59 60.0 17.0
60 57.0 18.0
61 60.0 53.0
62 47.0 53.0
63 13.0 33.0
64 55.0 11.0
65 28.0 3.0
66 33.0 54.0
67 36.0 25.0
68 11.0 14.0
69 9.0 26.0
70 27.0 34.0
71 14.0 49.0
72 3.0 49.0
73 36.0 46.0
74 13.0 26.0
75 58.0 58.0
76 59.0 57.0
77 10.0 36.0
78 27.0 61.0
79 17.0 60.0
80 62.0 37.0
81 11.0 53.0
82 5.0 12.0
83 19.0 11.0
84 46.0 4.0
85 26.0 53.0
86 37.0 35.0
87 40.0 52.0
88 12.0 45.0
89 29.0 61.0
90 15.0 7.0
91 13.0 19.0
92 27.0 36.0
93 52.0 44.0
94 4.0 59.0
95 34.0 60.0
96 55.0 6.0
97 1.0 35.0
98 59.0 4.0
99 53.0 18.0
100 33.0 49.0
101 45.0 14.0
102 28.0 62.0
103 57.0 43.0
104 54.0 26.0
105 47.0 20.0
106 62.0 39.0
107 31.0 24.0
108 15.0 46.0
109 3.0 26.0
110 41.0 10.0
111 31.0 51.0
112 4.0 34.0
113 53.0 2.0
114 7.0 14.0
115 27.0 47.0
116 59.0 52.0
117 54.0 1.0
118 36.0 59.0
119 37.0 58.0
120 9.0 51.0
121 12.0 13.0
122 43.0 55.0
123 31.0 35.0
124 38.0 50.0
125 55.0 29.0
126 55.0 38.0
127 43.0 18.0
128 26.0 11.0
129 25.0 13.0
130 55.0 47.0
131 45.0 46.0
132 50.0 42.0
133 26.0 20.0
134 10.0 33.0
135 5.0 46.0
136 20.0 10.0
137 31.0 10.0
138 59.0 63.0
139 34.0 18.0
140 3.0 12.0
141 6.0 38.0
142 14.0 30.0
143 52.0 14.0
144 23.0 42.0
145 36.0 27.0
146 59.0 29.0
147 42.0 22.0
148 62.0 55.0
149 1.0 14.0
150 50.0 44.0
151 27.0 42.0
152 37.0 53.0
153 20.0 12.0
154 6.0 22.0
155 38.0 36.0
156 15.0 43.0
157 19.0 13.0
158 55.0 42.0
159 45.0 41.0
160 30.0 22.0
161 63.0 1.0
162 57.0 15.0
163 2.0 33.0
164 49.0 20.0
165 30.0 49.0
166 2.0 42.0
167 49.0 29.0
168 13.0 39.0
169 38.0 38.0
170 30.0 15.0
171 42.0 26.0
172 33.0 23.0
173 17.0 36.0
174 27.0 46.0
175 20.0 7.0
176 11.0 38.0
177 9.0 50.0
178 26.0 29.0
179 3.0 9.0
180 55.0 10.0
181 24.0 41.0
182 23.0 21.0
183 61.0 5.0
184 44.0 53.0
185 1.0 57.0
186 42.0 19.0
187 2.0 10.0
188 22.0 52.0
189 63.0 5.0
190 13.0 25.0
191 52.0 41.0
192 20.0 18.0
193 44.0 55.0
194 4.0 19.0
195 15.0 49.0
196 19.0 10.0
197 10.0 7.0
198 20.0 39.0
199 19.0 19.0
200 30.0 19.0
201 27.0 32.0
202 51.0 17.0
203 62.0 63.0
204 51.0 26.0
205 63.0 7.0
206 31.0 2.0
207 51.0 35.0
208 58.0 50.0
209 22.0 8.0
210 57.0 39.0
211 19.0 3.0
212 42.0 5.0
213 62.0 38.0
214 17.0 15.0
215 24.0 63.0
216 2.0 60.0
217 31.0 50.0
218 21.0 58.0
219 5.0 49.0
220 59.0 51.0
221 55.0 62.0
222 4.0 60.0
223 5.0 58.0
224 43.0 42.0
225 60.0 58.0
226 5.0 33.0
227 6.0 62.0
228 41.0 29.0
229 57.0 25.0
230 37.0 56.0
231 52.0 38.0
232 54.0 20.0
233 22.0 15.0
234 44.0 6.0
235 3.0 20.0
236 25.0 2.0
237 11.0 12.0
238 2.0 9.0
239 15.0 3.0
240 31.0 63.0
START_DEPOT_SECTION
1
2
3
4
5
6
7
8
9
10
11
12
13
14
15
16
17
18
19
20
21
22
23
24
25
26
27
28
29
30
-1
END_DEPOT_SECTION
31
32
33
34
35
36
37
38
39
40
41
42
43
44
45
46
47
48
49
50
51
52
53
54
55
56
57
58
59
60
-1
EOF
